c description: Graph pigeonhole principle formula on fast_gnp_random_graph(20,5,0.9)
c generator: CNFgen (0.9.0)
c copyright: (C) 2012-2020 Massimo Lauria <massimo.lauria@uniroma1.it>
c url: https://massimolauria.net/cnfgen
c
p cnf 95 877
1 2 3 4 5 0
6 7 8 9 10 0
11 12 13 14 15 0
16 17 18 19 20 0
21 22 23 24 25 0
26 27 28 29 30 0
31 32 33 34 35 0
36 37 38 39 0
40 41 42 43 44 0
45 46 47 48 49 0
50 51 52 53 54 0
55 56 57 58 59 0
60 61 62 63 0
64 65 66 67 0
68 69 70 71 72 0
73 74 75 76 0
77 78 79 80 81 0
82 83 84 85 86 0
87 88 89 90 0
91 92 93 94 95 0
-1 -6 0
-1 -11 0
-1 -16 0
-1 -21 0
-1 -26 0
-1 -31 0
-1 -36 0
-1 -40 0
-1 -45 0
-1 -50 0
-1 -55 0
-1 -60 0
-1 -64 0
-1 -68 0
-1 -73 0
-1 -77 0
-1 -82 0
-1 -87 0
-1 -91 0
-6 -11 0
-6 -16 0
-6 -21 0
-6 -26 0
-6 -31 0
-6 -36 0
-6 -40 0
-6 -45 0
-6 -50 0
-6 -55 0
-6 -60 0
-6 -64 0
-6 -68 0
-6 -73 0
-6 -77 0
-6 -82 0
-6 -87 0
-6 -91 0
-11 -16 0
-11 -21 0
-11 -26 0
-11 -31 0
-11 -36 0
-11 -40 0
-11 -45 0
-11 -50 0
-11 -55 0
-11 -60 0
-11 -64 0
-11 -68 0
-11 -73 0
-11 -77 0
-11 -82 0
-11 -87 0
-11 -91 0
-16 -21 0
-16 -26 0
-16 -31 0
-16 -36 0
-16 -40 0
-16 -45 0
-16 -50 0
-16 -55 0
-16 -60 0
-16 -64 0
-16 -68 0
-16 -73 0
-16 -77 0
-16 -82 0
-16 -87 0
-16 -91 0
-21 -26 0
-21 -31 0
-21 -36 0
-21 -40 0
-21 -45 0
-21 -50 0
-21 -55 0
-21 -60 0
-21 -64 0
-21 -68 0
-21 -73 0
-21 -77 0
-21 -82 0
-21 -87 0
-21 -91 0
-26 -31 0
-26 -36 0
-26 -40 0
-26 -45 0
-26 -50 0
-26 -55 0
-26 -60 0
-26 -64 0
-26 -68 0
-26 -73 0
-26 -77 0
-26 -82 0
-26 -87 0
-26 -91 0
-31 -36 0
-31 -40 0
-31 -45 0
-31 -50 0
-31 -55 0
-31 -60 0
-31 -64 0
-31 -68 0
-31 -73 0
-31 -77 0
-31 -82 0
-31 -87 0
-31 -91 0
-36 -40 0
-36 -45 0
-36 -50 0
-36 -55 0
-36 -60 0
-36 -64 0
-36 -68 0
-36 -73 0
-36 -77 0
-36 -82 0
-36 -87 0
-36 -91 0
-40 -45 0
-40 -50 0
-40 -55 0
-40 -60 0
-40 -64 0
-40 -68 0
-40 -73 0
-40 -77 0
-40 -82 0
-40 -87 0
-40 -91 0
-45 -50 0
-45 -55 0
-45 -60 0
-45 -64 0
-45 -68 0
-45 -73 0
-45 -77 0
-45 -82 0
-45 -87 0
-45 -91 0
-50 -55 0
-50 -60 0
-50 -64 0
-50 -68 0
-50 -73 0
-50 -77 0
-50 -82 0
-50 -87 0
-50 -91 0
-55 -60 0
-55 -64 0
-55 -68 0
-55 -73 0
-55 -77 0
-55 -82 0
-55 -87 0
-55 -91 0
-60 -64 0
-60 -68 0
-60 -73 0
-60 -77 0
-60 -82 0
-60 -87 0
-60 -91 0
-64 -68 0
-64 -73 0
-64 -77 0
-64 -82 0
-64 -87 0
-64 -91 0
-68 -73 0
-68 -77 0
-68 -82 0
-68 -87 0
-68 -91 0
-73 -77 0
-73 -82 0
-73 -87 0
-73 -91 0
-77 -82 0
-77 -87 0
-77 -91 0
-82 -87 0
-82 -91 0
-87 -91 0
-2 -7 0
-2 -12 0
-2 -17 0
-2 -22 0
-2 -27 0
-2 -32 0
-2 -41 0
-2 -46 0
-2 -51 0
-2 -56 0
-2 -65 0
-2 -69 0
-2 -74 0
-2 -78 0
-2 -83 0
-2 -88 0
-2 -92 0
-7 -12 0
-7 -17 0
-7 -22 0
-7 -27 0
-7 -32 0
-7 -41 0
-7 -46 0
-7 -51 0
-7 -56 0
-7 -65 0
-7 -69 0
-7 -74 0
-7 -78 0
-7 -83 0
-7 -88 0
-7 -92 0
-12 -17 0
-12 -22 0
-12 -27 0
-12 -32 0
-12 -41 0
-12 -46 0
-12 -51 0
-12 -56 0
-12 -65 0
-12 -69 0
-12 -74 0
-12 -78 0
-12 -83 0
-12 -88 0
-12 -92 0
-17 -22 0
-17 -27 0
-17 -32 0
-17 -41 0
-17 -46 0
-17 -51 0
-17 -56 0
-17 -65 0
-17 -69 0
-17 -74 0
-17 -78 0
-17 -83 0
-17 -88 0
-17 -92 0
-22 -27 0
-22 -32 0
-22 -41 0
-22 -46 0
-22 -51 0
-22 -56 0
-22 -65 0
-22 -69 0
-22 -74 0
-22 -78 0
-22 -83 0
-22 -88 0
-22 -92 0
-27 -32 0
-27 -41 0
-27 -46 0
-27 -51 0
-27 -56 0
-27 -65 0
-27 -69 0
-27 -74 0
-27 -78 0
-27 -83 0
-27 -88 0
-27 -92 0
-32 -41 0
-32 -46 0
-32 -51 0
-32 -56 0
-32 -65 0
-32 -69 0
-32 -74 0
-32 -78 0
-32 -83 0
-32 -88 0
-32 -92 0
-41 -46 0
-41 -51 0
-41 -56 0
-41 -65 0
-41 -69 0
-41 -74 0
-41 -78 0
-41 -83 0
-41 -88 0
-41 -92 0
-46 -51 0
-46 -56 0
-46 -65 0
-46 -69 0
-46 -74 0
-46 -78 0
-46 -83 0
-46 -88 0
-46 -92 0
-51 -56 0
-51 -65 0
-51 -69 0
-51 -74 0
-51 -78 0
-51 -83 0
-51 -88 0
-51 -92 0
-56 -65 0
-56 -69 0
-56 -74 0
-56 -78 0
-56 -83 0
-56 -88 0
-56 -92 0
-65 -69 0
-65 -74 0
-65 -78 0
-65 -83 0
-65 -88 0
-65 -92 0
-69 -74 0
-69 -78 0
-69 -83 0
-69 -88 0
-69 -92 0
-74 -78 0
-74 -83 0
-74 -88 0
-74 -92 0
-78 -83 0
-78 -88 0
-78 -92 0
-83 -88 0
-83 -92 0
-88 -92 0
-3 -8 0
-3 -13 0
-3 -18 0
-3 -23 0
-3 -28 0
-3 -33 0
-3 -37 0
-3 -42 0
-3 -47 0
-3 -52 0
-3 -57 0
-3 -61 0
-3 -66 0
-3 -70 0
-3 -75 0
-3 -79 0
-3 -84 0
-3 -89 0
-3 -93 0
-8 -13 0
-8 -18 0
-8 -23 0
-8 -28 0
-8 -33 0
-8 -37 0
-8 -42 0
-8 -47 0
-8 -52 0
-8 -57 0
-8 -61 0
-8 -66 0
-8 -70 0
-8 -75 0
-8 -79 0
-8 -84 0
-8 -89 0
-8 -93 0
-13 -18 0
-13 -23 0
-13 -28 0
-13 -33 0
-13 -37 0
-13 -42 0
-13 -47 0
-13 -52 0
-13 -57 0
-13 -61 0
-13 -66 0
-13 -70 0
-13 -75 0
-13 -79 0
-13 -84 0
-13 -89 0
-13 -93 0
-18 -23 0
-18 -28 0
-18 -33 0
-18 -37 0
-18 -42 0
-18 -47 0
-18 -52 0
-18 -57 0
-18 -61 0
-18 -66 0
-18 -70 0
-18 -75 0
-18 -79 0
-18 -84 0
-18 -89 0
-18 -93 0
-23 -28 0
-23 -33 0
-23 -37 0
-23 -42 0
-23 -47 0
-23 -52 0
-23 -57 0
-23 -61 0
-23 -66 0
-23 -70 0
-23 -75 0
-23 -79 0
-23 -84 0
-23 -89 0
-23 -93 0
-28 -33 0
-28 -37 0
-28 -42 0
-28 -47 0
-28 -52 0
-28 -57 0
-28 -61 0
-28 -66 0
-28 -70 0
-28 -75 0
-28 -79 0
-28 -84 0
-28 -89 0
-28 -93 0
-33 -37 0
-33 -42 0
-33 -47 0
-33 -52 0
-33 -57 0
-33 -61 0
-33 -66 0
-33 -70 0
-33 -75 0
-33 -79 0
-33 -84 0
-33 -89 0
-33 -93 0
-37 -42 0
-37 -47 0
-37 -52 0
-37 -57 0
-37 -61 0
-37 -66 0
-37 -70 0
-37 -75 0
-37 -79 0
-37 -84 0
-37 -89 0
-37 -93 0
-42 -47 0
-42 -52 0
-42 -57 0
-42 -61 0
-42 -66 0
-42 -70 0
-42 -75 0
-42 -79 0
-42 -84 0
-42 -89 0
-42 -93 0
-47 -52 0
-47 -57 0
-47 -61 0
-47 -66 0
-47 -70 0
-47 -75 0
-47 -79 0
-47 -84 0
-47 -89 0
-47 -93 0
-52 -57 0
-52 -61 0
-52 -66 0
-52 -70 0
-52 -75 0
-52 -79 0
-52 -84 0
-52 -89 0
-52 -93 0
-57 -61 0
-57 -66 0
-57 -70 0
-57 -75 0
-57 -79 0
-57 -84 0
-57 -89 0
-57 -93 0
-61 -66 0
-61 -70 0
-61 -75 0
-61 -79 0
-61 -84 0
-61 -89 0
-61 -93 0
-66 -70 0
-66 -75 0
-66 -79 0
-66 -84 0
-66 -89 0
-66 -93 0
-70 -75 0
-70 -79 0
-70 -84 0
-70 -89 0
-70 -93 0
-75 -79 0
-75 -84 0
-75 -89 0
-75 -93 0
-79 -84 0
-79 -89 0
-79 -93 0
-84 -89 0
-84 -93 0
-89 -93 0
-4 -9 0
-4 -14 0
-4 -19 0
-4 -24 0
-4 -29 0
-4 -34 0
-4 -38 0
-4 -43 0
-4 -48 0
-4 -53 0
-4 -58 0
-4 -62 0
-4 -71 0
-4 -76 0
-4 -80 0
-4 -85 0
-4 -94 0
-9 -14 0
-9 -19 0
-9 -24 0
-9 -29 0
-9 -34 0
-9 -38 0
-9 -43 0
-9 -48 0
-9 -53 0
-9 -58 0
-9 -62 0
-9 -71 0
-9 -76 0
-9 -80 0
-9 -85 0
-9 -94 0
-14 -19 0
-14 -24 0
-14 -29 0
-14 -34 0
-14 -38 0
-14 -43 0
-14 -48 0
-14 -53 0
-14 -58 0
-14 -62 0
-14 -71 0
-14 -76 0
-14 -80 0
-14 -85 0
-14 -94 0
-19 -24 0
-19 -29 0
-19 -34 0
-19 -38 0
-19 -43 0
-19 -48 0
-19 -53 0
-19 -58 0
-19 -62 0
-19 -71 0
-19 -76 0
-19 -80 0
-19 -85 0
-19 -94 0
-24 -29 0
-24 -34 0
-24 -38 0
-24 -43 0
-24 -48 0
-24 -53 0
-24 -58 0
-24 -62 0
-24 -71 0
-24 -76 0
-24 -80 0
-24 -85 0
-24 -94 0
-29 -34 0
-29 -38 0
-29 -43 0
-29 -48 0
-29 -53 0
-29 -58 0
-29 -62 0
-29 -71 0
-29 -76 0
-29 -80 0
-29 -85 0
-29 -94 0
-34 -38 0
-34 -43 0
-34 -48 0
-34 -53 0
-34 -58 0
-34 -62 0
-34 -71 0
-34 -76 0
-34 -80 0
-34 -85 0
-34 -94 0
-38 -43 0
-38 -48 0
-38 -53 0
-38 -58 0
-38 -62 0
-38 -71 0
-38 -76 0
-38 -80 0
-38 -85 0
-38 -94 0
-43 -48 0
-43 -53 0
-43 -58 0
-43 -62 0
-43 -71 0
-43 -76 0
-43 -80 0
-43 -85 0
-43 -94 0
-48 -53 0
-48 -58 0
-48 -62 0
-48 -71 0
-48 -76 0
-48 -80 0
-48 -85 0
-48 -94 0
-53 -58 0
-53 -62 0
-53 -71 0
-53 -76 0
-53 -80 0
-53 -85 0
-53 -94 0
-58 -62 0
-58 -71 0
-58 -76 0
-58 -80 0
-58 -85 0
-58 -94 0
-62 -71 0
-62 -76 0
-62 -80 0
-62 -85 0
-62 -94 0
-71 -76 0
-71 -80 0
-71 -85 0
-71 -94 0
-76 -80 0
-76 -85 0
-76 -94 0
-80 -85 0
-80 -94 0
-85 -94 0
-5 -10 0
-5 -15 0
-5 -20 0
-5 -25 0
-5 -30 0
-5 -35 0
-5 -39 0
-5 -44 0
-5 -49 0
-5 -54 0
-5 -59 0
-5 -63 0
-5 -67 0
-5 -72 0
-5 -81 0
-5 -86 0
-5 -90 0
-5 -95 0
-10 -15 0
-10 -20 0
-10 -25 0
-10 -30 0
-10 -35 0
-10 -39 0
-10 -44 0
-10 -49 0
-10 -54 0
-10 -59 0
-10 -63 0
-10 -67 0
-10 -72 0
-10 -81 0
-10 -86 0
-10 -90 0
-10 -95 0
-15 -20 0
-15 -25 0
-15 -30 0
-15 -35 0
-15 -39 0
-15 -44 0
-15 -49 0
-15 -54 0
-15 -59 0
-15 -63 0
-15 -67 0
-15 -72 0
-15 -81 0
-15 -86 0
-15 -90 0
-15 -95 0
-20 -25 0
-20 -30 0
-20 -35 0
-20 -39 0
-20 -44 0
-20 -49 0
-20 -54 0
-20 -59 0
-20 -63 0
-20 -67 0
-20 -72 0
-20 -81 0
-20 -86 0
-20 -90 0
-20 -95 0
-25 -30 0
-25 -35 0
-25 -39 0
-25 -44 0
-25 -49 0
-25 -54 0
-25 -59 0
-25 -63 0
-25 -67 0
-25 -72 0
-25 -81 0
-25 -86 0
-25 -90 0
-25 -95 0
-30 -35 0
-30 -39 0
-30 -44 0
-30 -49 0
-30 -54 0
-30 -59 0
-30 -63 0
-30 -67 0
-30 -72 0
-30 -81 0
-30 -86 0
-30 -90 0
-30 -95 0
-35 -39 0
-35 -44 0
-35 -49 0
-35 -54 0
-35 -59 0
-35 -63 0
-35 -67 0
-35 -72 0
-35 -81 0
-35 -86 0
-35 -90 0
-35 -95 0
-39 -44 0
-39 -49 0
-39 -54 0
-39 -59 0
-39 -63 0
-39 -67 0
-39 -72 0
-39 -81 0
-39 -86 0
-39 -90 0
-39 -95 0
-44 -49 0
-44 -54 0
-44 -59 0
-44 -63 0
-44 -67 0
-44 -72 0
-44 -81 0
-44 -86 0
-44 -90 0
-44 -95 0
-49 -54 0
-49 -59 0
-49 -63 0
-49 -67 0
-49 -72 0
-49 -81 0
-49 -86 0
-49 -90 0
-49 -95 0
-54 -59 0
-54 -63 0
-54 -67 0
-54 -72 0
-54 -81 0
-54 -86 0
-54 -90 0
-54 -95 0
-59 -63 0
-59 -67 0
-59 -72 0
-59 -81 0
-59 -86 0
-59 -90 0
-59 -95 0
-63 -67 0
-63 -72 0
-63 -81 0
-63 -86 0
-63 -90 0
-63 -95 0
-67 -72 0
-67 -81 0
-67 -86 0
-67 -90 0
-67 -95 0
-72 -81 0
-72 -86 0
-72 -90 0
-72 -95 0
-81 -86 0
-81 -90 0
-81 -95 0
-86 -90 0
-86 -95 0
-90 -95 0